c NETGEN flow network generator (C version)
c  Problem  1 input parameters
c  ---------------------------
c   Random seed:          1832051341
c   Number of nodes:              12
c   Source nodes:                  1
c   Sink nodes:                    1
c   Number of arcs:               50
c   Minimum arc cost:              1
c   Maximum arc cost:            105
c   Total supply:                755
c   Transshipment -
c     Sources:                     0
c     Sinks:                       0
c   Skeleton arcs -
c     With max cost:               0%
c     Capacitated:               100%
c   Minimum arc capacity:         47
c   Maximum arc capacity:        190
c
c  *** Minimum cost flow ***
c
p min 12 50
n 1 623
n 12 -623
a 1 7 0 623 2
a 1 11 0 109 102
a 1 2 0 158 23
a 1 5 0 49 61
a 1 10 0 110 60
a 2 12 0 623 75
a 2 11 0 76 29
a 2 8 0 84 69
a 2 6 0 71 98
a 3 9 0 623 101
a 3 10 0 152 94
a 3 8 0 57 65
a 3 6 0 129 92
a 3 12 0 112 21
a 4 8 0 623 3
a 4 5 0 123 23
a 4 10 0 47 101
a 4 7 0 88 36
a 4 6 0 125 56
a 5 10 0 623 56
a 5 6 0 183 39
a 5 4 0 68 52
a 5 12 0 74 82
a 5 8 0 75 5
a 6 11 0 623 98
a 6 5 0 120 13
a 6 12 0 110 79
a 6 4 0 91 5
a 6 9 0 124 46
a 6 10 0 128 60
a 6 8 0 67 9
a 7 5 0 623 27
a 7 4 0 163 20
a 7 6 0 116 74
a 7 11 0 161 61
a 8 6 0 623 46
a 8 1 0 623 99
a 8 9 0 86 92
a 8 10 0 127 48
a 8 3 0 150 32
a 8 11 0 51 30
a 9 4 0 623 30
a 9 5 0 64 32
a 9 12 0 48 2
a 10 3 0 623 62
a 10 6 0 80 26
a 11 2 0 623 83
a 11 3 0 57 69
a 11 8 0 120 3
a 11 12 0 74 68
